results/x-long/X-n143-k7.vrp_seed-46.out
15700	1149
