results/x-long/X-n143-k7.vrp_seed-46.vrp.sol
Route #1: 109 9 50 49 51 88 52 20 66 101 46 67 58 135 59 40 70 124 115
Route #2: 78 17 2 41 86 8 43 114 110 53 102 6 31 98 79 60 72 111 1 107 5 93 116 136
Route #3: 25 35 142 82 14 37 122 77 22 119 80 39 29 42 131 69 140 141 15 27 106 24 99 71 130
Route #4: 126 13 127 84 68
Route #5: 128 118 54 12 89 45 90 18 133 28 83 56 91 85 120 97 19 7 32 16 36
Route #6: 4 48 87 30 121 34 138 105 129 76 3 94 75 26 112 63 113 10 103 38 134 92 108 117
Route #7: 73 57 95 139 55 137 123 125 33 21 23 132 104 62 96 47 81 100 11 74 44 64 61 65
Cost 15700.000000